Version identifier: 22.1.1.0 | 2022-11-28 | 9160aff4d
CPXPARAM_TimeLimit                               3600
Tried aggregator 1 time.
MIP Presolve eliminated 119 rows and 70 columns.
Reduced MIP has 5481 rows, 2541 columns, and 16343 nonzeros.
Reduced MIP has 2541 binaries, 0 generals, 0 SOSs, and 0 indicators.
Presolve time = 0.01 sec. (12.41 ticks)
Found incumbent of value 4162517.000000 after 0.01 sec. (15.12 ticks)
Probing time = 0.00 sec. (3.52 ticks)
Tried aggregator 1 time.
Detecting symmetries...
Reduced MIP has 5481 rows, 2541 columns, and 16343 nonzeros.
Reduced MIP has 2541 binaries, 0 generals, 0 SOSs, and 0 indicators.
Presolve time = 0.01 sec. (14.08 ticks)
Probing time = 0.01 sec. (3.52 ticks)
Clique table members: 2431.
MIP emphasis: balance optimality and feasibility.
MIP search method: dynamic search.
Parallel mode: deterministic, using up to 8 threads.
Root relaxation solution time = 0.01 sec. (9.53 ticks)

        Nodes                                         Cuts/
   Node  Left     Objective  IInf  Best Integer    Best Bound    ItCnt     Gap

*     0+    0                      4162517.0000        0.0000           100.00%
*     0+    0                      2471652.0000        0.0000           100.00%
*     0+    0                       517765.0000        0.0000           100.00%
*     0+    0                       311036.0000        0.0000           100.00%
      0     0    93774.0000   100   311036.0000    93774.0000      156   69.85%
      0     0   106217.5000   100   311036.0000     Cuts: 149      257   65.85%
*     0+    0                       139138.0000   106217.5000            23.66%
      0     0   118485.5000    90   139138.0000     Cuts: 147      385   14.84%
*     0+    0                       138645.0000   118485.5000            14.54%
*     0+    0                       137943.0000   118485.5000            14.11%
      0     0  -1.00000e+75     0   137943.0000   118485.5000      385   14.11%
Detecting symmetries...

Repeating presolve.
Tried aggregator 1 time.
MIP Presolve eliminated 4777 rows and 1942 columns.
MIP Presolve modified 458 coefficients.
Reduced MIP has 704 rows, 599 columns, and 2466 nonzeros.
Reduced MIP has 599 binaries, 0 generals, 0 SOSs, and 0 indicators.
Presolve time = 0.00 sec. (4.67 ticks)
Probing time = 0.00 sec. (0.60 ticks)
Tried aggregator 1 time.
Detecting symmetries...
MIP Presolve eliminated 2 rows and 0 columns.
Reduced MIP has 702 rows, 599 columns, and 2462 nonzeros.
Reduced MIP has 599 binaries, 0 generals, 0 SOSs, and 0 indicators.
Presolve time = 0.00 sec. (2.54 ticks)
Represolve time = 0.01 sec. (12.73 ticks)
Probing time = 0.00 sec. (0.60 ticks)
Clique table members: 592.
MIP emphasis: balance optimality and feasibility.
MIP search method: dynamic search.
Parallel mode: deterministic, using up to 8 threads.
Root relaxation solution time = 0.01 sec. (8.51 ticks)

        Nodes                                         Cuts/
   Node  Left     Objective  IInf  Best Integer    Best Bound    ItCnt     Gap

*     0+    0                       137943.0000   118485.5000            14.11%
      0     0   135890.7000   132   137943.0000   135890.7000      724    1.49%
*     0+    0                       137767.0000   135890.7000             1.36%
      0     0        cutoff         137767.0000   137767.0000      762    0.00%
Elapsed time = 0.22 sec. (171.98 ticks, tree = 0.01 MB, solutions = 8)

Implied bound cuts applied:  234
Zero-half cuts applied:  50
Lift and project cuts applied:  3
Gomory fractional cuts applied:  4

Root node processing (before b&c):
  Real time             =    0.22 sec. (172.19 ticks)
Parallel b&c, 8 threads:
  Real time             =    0.00 sec. (0.00 ticks)
  Sync time (average)   =    0.00 sec.
  Wait time (average)   =    0.00 sec.
                          ------------
Total (root+branch&cut) =    0.22 sec. (172.19 ticks)
Status: Optimal
Obj: 137767

Instalacoes abertas:
Instalação 4 aberta
Instalação 9 aberta
Instalação 20 aberta
Instalação 22 aberta

Atribuições (cliente -> instalação):
Cliente 0 -> Instalação 9
Cliente 1 -> Instalação 9
Cliente 2 -> Instalação 20
Cliente 3 -> Instalação 20
Cliente 4 -> Instalação 4
Cliente 5 -> Instalação 9
Cliente 6 -> Instalação 9
Cliente 7 -> Instalação 20
Cliente 8 -> Instalação 4
Cliente 9 -> Instalação 9
Cliente 10 -> Instalação 20
Cliente 11 -> Instalação 9
Cliente 12 -> Instalação 20
Cliente 13 -> Instalação 20
Cliente 14 -> Instalação 9
Cliente 15 -> Instalação 4
Cliente 16 -> Instalação 4
Cliente 17 -> Instalação 9
Cliente 18 -> Instalação 20
Cliente 19 -> Instalação 9
Cliente 20 -> Instalação 20
Cliente 21 -> Instalação 4
Cliente 22 -> Instalação 22
Cliente 23 -> Instalação 9
Cliente 24 -> Instalação 9
Cliente 25 -> Instalação 20
Cliente 26 -> Instalação 4
Cliente 27 -> Instalação 20
Cliente 28 -> Instalação 9
Cliente 29 -> Instalação 9
Cliente 30 -> Instalação 9
Cliente 31 -> Instalação 20
Cliente 32 -> Instalação 4
Cliente 33 -> Instalação 20
Cliente 34 -> Instalação 9
Cliente 35 -> Instalação 20
Cliente 36 -> Instalação 20
Cliente 37 -> Instalação 20
Cliente 38 -> Instalação 4
Cliente 39 -> Instalação 20
Cliente 40 -> Instalação 9
Cliente 41 -> Instalação 20
Cliente 42 -> Instalação 9
Cliente 43 -> Instalação 9
Cliente 44 -> Instalação 4
Cliente 45 -> Instalação 4
Cliente 46 -> Instalação 4
Cliente 47 -> Instalação 4
Cliente 48 -> Instalação 9
Cliente 49 -> Instalação 9
